c Sudoku solution
p cnf 729 0
174 0
211 0
267 0
289 0
292 0
328 0
337 0
356 0
385 0
555 0
566 0
594 0
625 0
654 0
662 0
683 0
698 0
764 0
791 0
393 0
371 0
369 0
824 0
984 0
839 0
931 0
636 0
641 0
945 0
165 0
151 0
235 0
314 0
244 0
342 0
434 0
861 0
979 0
677 0
572 0
581 0
486 0
475 0
499 0
421 0
412 0
549 0
619 0
129 0
132 0
759 0
715 0
895 0
997 0
187 0
196 0
278 0
113 0
226 0
148 0
253 0
916 0
776 0
873 0
846 0
443 0
468 0
457 0
747 0
963 0
817 0
738 0
723 0
922 0
782 0
888 0
852 0
958 0
518 0
527 0
533 0
